Route #1: 1 8 54 15 12 66 39 11 59 13 18 1 
Route #2: 1 7 34 64 50 64 24 64 1 
Route #3: 1 76 69 3 75 48 22 75 31 1 
Route #4: 1 27 54 36 9 14 47 68 1 
Route #5: 1 54 20 14 58 16 6 30 5 1 
Route #6: 1 59 73 40 10 33 26 33 41 1 
Route #7: 1 33 51 33 45 4 17 64 52 1 
Route #8: 1 75 49 6 37 38 6 46 1 
Route #9: 1 35 53 14 55 14 28 1 
Route #10: 1 75 29 23 2 43 2 1 
Route #11: 1 2 42 44 2 74 63 75 1 
Cost 908.0
